
Gurobi 9.5.1 (linux64) logging started Mon 06 Jun 2022 10:42:10 AM MST

Set parameter LogFile to value "/home/local/ASUAD/kmajd1/NNRepLayer_v2/demos/examples/tc7_walking_example/repair_net/logs/opt_log_64_nodes_layer4_6_6_2022_10_41_58.log"
Gurobi Optimizer version 9.5.1 build v9.5.1rc2 (linux64)
Thread count: 48 physical cores, 96 logical processors, using up to 32 threads
Optimize a model with 580 rows, 216 columns and 3004 nonzeros
Model fingerprint: 0x15f2c259
Model has 151 quadratic objective terms
Coefficient statistics:
  Matrix range     [2e-03, 1e+01]
  Objective range  [8e-03, 3e+01]
  QObjective range [1e+00, 2e+00]
  Bounds range     [1e+01, 4e+01]
  RHS range        [1e-03, 3e+01]
Presolve removed 334 rows and 17 columns
Presolve time: 0.00s
Presolved: 246 rows, 199 columns, 2636 nonzeros
Presolved model has 151 quadratic objective terms
Ordering time: 0.00s

Barrier statistics:
 Dense cols : 27
 AA' NZ     : 3.744e+03
 Factor NZ  : 5.128e+03
 Factor Ops : 1.529e+05 (less than 1 second per iteration)
 Threads    : 1

                  Objective                Residual
Iter       Primal          Dual         Primal    Dual     Compl     Time
   0   2.39887949e+07 -3.78993497e+07  9.20e+03 4.11e+02  8.71e+05     0s
   1   1.11807840e+07 -2.42841782e+07  6.12e+03 2.74e+02  5.87e+05     0s
   2   3.95690953e+05 -1.49910855e+07  1.26e+03 5.65e+01  1.71e+05     0s
   3   1.99393566e+04 -7.76724150e+06  1.58e+01 7.09e-01  1.70e+04     0s
   4   2.10146428e+04 -1.54910155e+06  1.58e-05 7.09e-07  3.18e+03     0s
   5   1.65235401e+04 -9.39797852e+04  1.10e-06 4.94e-08  2.24e+02     0s
   6   3.74129662e+03 -8.93708428e+03  4.97e-08 2.22e-09  2.57e+01     0s
   7   1.32161364e+03 -1.60832086e+02  9.38e-11 4.16e-12  3.00e+00     0s
   8   1.01946198e+03  4.82412783e+02  4.99e-12 4.17e-11  1.09e+00     0s
   9   9.87347322e+02  7.94185532e+02  1.17e-12 2.93e-10  3.91e-01     0s
  10   9.79112253e+02  9.40206791e+02  2.13e-14 2.55e-10  7.88e-02     0s
  11   9.77229360e+02  9.65541518e+02  4.26e-14 4.74e-10  2.37e-02     0s
  12   9.76438830e+02  9.76381768e+02  2.49e-14 7.49e-10  1.16e-04     0s
  13   9.76433257e+02  9.76433117e+02  2.84e-14 1.78e-12  2.84e-07     0s
  14   9.76433252e+02  9.76433252e+02  2.13e-14 2.43e-10  2.85e-10     0s

Barrier solved model in 14 iterations and 0.01 seconds (0.00 work units)
Optimal objective 9.76433252e+02

